NAME: baf14st70
TYPE: GTSP
COMMENT: 70-city problem (Smith/Thompson)
DIMENSION: 70
GTSP_SETS : 14
EDGE_WEIGHT_TYPE : EUC_2D
NODE_COORD_SECTION
1 64 96
2 80 39
3 69 23
4 72 42
5 48 67
6 58 43
7 81 34
8 79 17
9 30 23
10 42 67
11 7 76
12 29 51
13 78 92
14 64 8
15 95 57
16 57 91
17 40 35
18 68 40
19 92 34
20 62 1
21 28 43
22 76 73
23 67 88
24 93 54
25 6 8
26 87 18
27 30 9
28 77 13
29 78 94
30 55 3
31 82 88
32 73 28
33 20 55
34 27 43
35 95 86
36 67 99
37 48 83
38 75 81
39 8 19
40 20 18
41 54 38
42 63 36
43 44 33
44 52 18
45 12 13
46 25 5
47 58 85
48 5 67
49 90 9
50 41 76
51 25 76
52 37 64
53 56 63
54 10 55
55 98 7
56 16 74
57 89 60
58 48 82
59 81 76
60 29 60
61 17 22
62 5 45
63 79 70
64 9 100
65 17 82
66 74 67
67 10 68
68 48 19
69 83 86
70 84 94
GTSP_SET_SECTION:
1 1 15 29 43 57 -1 
2 2 16 30 44 58 -1 
3 3 17 31 45 59 -1 
4 4 18 32 46 60 -1 
5 5 19 33 47 61 -1 
6 6 20 34 48 62 -1 
7 7 21 35 49 63 -1 
8 8 22 36 50 64 -1 
9 9 23 37 51 65 -1 
10 10 24 38 52 66 -1 
11 11 25 39 53 67 -1 
12 12 26 40 54 68 -1 
13 13 27 41 55 69 -1 
14 14 28 42 56 70 -1 
EOF
